NAME PassengerReallocation
ROWS
 N  OBJ
 G  Flight_101_Spill
 G  Flight_102_Spill
 G  Flight_104_Spill
 G  Flight_201_Spill
 G  Flight_202_Spill
 G  Flight_203_Spill
 G  Flight_204_Spill
 G  Flight_301_Spill
 G  Flight_302_Spill
 G  Flight_303_Spill
 L  Demand_Limit_1
 L  Demand_Limit_2
 L  Demand_Limit_3
 L  Demand_Limit_4
 L  Demand_Limit_5
 L  Demand_Limit_6
 L  Demand_Limit_7
 L  Demand_Limit_8
 L  Demand_Limit_9
 L  Demand_Limit_10
 L  Demand_Limit_11
 L  Demand_Limit_12
 L  Demand_Limit_13
 L  Demand_Limit_14
 L  Demand_Limit_15
COLUMNS
    t_1^0     OBJ       150
    t_1^0     Flight_102_Spill  1
    t_1^0     Demand_Limit_1  1
    t_2^0     OBJ       170
    t_2^0     Flight_104_Spill  1
    t_2^0     Demand_Limit_2  1
    t_3^0     OBJ       80
    t_3^0     Flight_202_Spill  1
    t_3^0     Demand_Limit_3  1
    t_4^0     OBJ       70
    t_4^0     Flight_204_Spill  1
    t_4^0     Demand_Limit_4  1
    t_5^0     OBJ       50
    t_5^0     Flight_201_Spill  1
    t_5^0     Flight_302_Spill  1
    t_5^0     Demand_Limit_5  1
    t_6^0     OBJ       120
    t_6^0     Flight_101_Spill  1
    t_6^0     Demand_Limit_6  1
    t_7^0     OBJ       100
    t_7^0     Flight_102_Spill  1
    t_7^0     Flight_201_Spill  1
    t_7^0     Demand_Limit_7  1
    t_8^0     OBJ       100
    t_8^0     Flight_104_Spill  1
    t_8^0     Flight_203_Spill  1
    t_8^0     Demand_Limit_8  1
    t_9^0     OBJ       140
    t_9^0     Flight_302_Spill  1
    t_9^0     Demand_Limit_9  1
    t_10^0    OBJ       80
    t_10^0    Flight_202_Spill  1
    t_10^0    Flight_301_Spill  1
    t_10^0    Demand_Limit_10  1
    t_11^0    OBJ       150
    t_11^0    Flight_201_Spill  1
    t_11^0    Demand_Limit_11  1
    t_12^0    OBJ       180
    t_12^0    Flight_203_Spill  1
    t_12^0    Demand_Limit_12  1
    t_13^0    OBJ       100
    t_13^0    Flight_101_Spill  1
    t_13^0    Flight_202_Spill  1
    t_13^0    Demand_Limit_13  1
    t_14^0    OBJ       75
    t_14^0    Flight_301_Spill  1
    t_14^0    Demand_Limit_14  1
    t_15^0    OBJ       80
    t_15^0    Flight_303_Spill  1
    t_15^0    Demand_Limit_15  1
RHS
    RHS1      Flight_101_Spill  42
    RHS1      Flight_102_Spill  62
    RHS1      Flight_104_Spill  82
    RHS1      Flight_201_Spill  36
    RHS1      Flight_202_Spill  117
    RHS1      Flight_203_Spill  142
    RHS1      Flight_204_Spill  -8
    RHS1      Flight_301_Spill  56
    RHS1      Flight_302_Spill  82
    RHS1      Flight_303_Spill  -64
    RHS1      Demand_Limit_1  90
    RHS1      Demand_Limit_2  120
    RHS1      Demand_Limit_3  70
    RHS1      Demand_Limit_4  100
    RHS1      Demand_Limit_5  50
    RHS1      Demand_Limit_6  120
    RHS1      Demand_Limit_7  80
    RHS1      Demand_Limit_8  70
    RHS1      Demand_Limit_9  140
    RHS1      Demand_Limit_10  125
    RHS1      Demand_Limit_11  50
    RHS1      Demand_Limit_12  180
    RHS1      Demand_Limit_13  30
    RHS1      Demand_Limit_14  75
    RHS1      Demand_Limit_15  80
BOUNDS
ENDATA
